Nodes = {"ATLAM5", "ATLAng", "CHINng", "DNVRng", "HSTNng", "IPLSng", "KSCYng", "LOSAng", "NYCMng", "SNVAng", "STTLng", "WASHng"};
Arcs = {<"ATLAM5","ATLAng",36,0>, <"ATLAM5","CHINng",36,9>, <"ATLAM5","DNVRng",36,22>, <"ATLAM5","HSTNng",36,12>, <"ATLAM5","IPLSng",36,6>, <"ATLAM5","KSCYng",36,13>, <"ATLAM5","LOSAng",36,34>, <"ATLAM5","NYCMng",36,13>, <"ATLAM5","SNVAng",36,38>, <"ATLAM5","STTLng",36,40>, <"ATLAM5","WASHng",36,9>, <"ATLAng","ATLAM5",36,0>, <"ATLAng","CHINng",36,8>, <"ATLAng","DNVRng",36,20>, <"ATLAng","HSTNng",36,0>, <"ATLAng","IPLSng",36,0>, <"ATLAng","KSCYng",36,12>, <"ATLAng","LOSAng",36,33>, <"ATLAng","NYCMng",36,13>, <"ATLAng","SNVAng",36,37>, <"ATLAng","STTLng",36,39>, <"ATLAng","WASHng",36,0>, <"CHINng","ATLAM5",36,9>, <"CHINng","ATLAng",36,8>, <"CHINng","DNVRng",36,17>, <"CHINng","HSTNng",36,14>, <"CHINng","IPLSng",36,0>, <"CHINng","KSCYng",36,9>, <"CHINng","LOSAng",36,32>, <"CHINng","NYCMng",36,0>, <"CHINng","SNVAng",36,35>, <"CHINng","STTLng",36,35>, <"CHINng","WASHng",36,11>, <"DNVRng","ATLAM5",36,22>, <"DNVRng","ATLAng",36,20>, <"DNVRng","CHINng",36,17>, <"DNVRng","HSTNng",36,15>, <"DNVRng","IPLSng",36,19>, <"DNVRng","KSCYng",36,0>, <"DNVRng","LOSAng",36,15>, <"DNVRng","NYCMng",36,31>, <"DNVRng","SNVAng",36,0>, <"DNVRng","STTLng",36,0>, <"DNVRng","WASHng",36,28>, <"HSTNng","ATLAM5",36,12>, <"HSTNng","ATLAng",36,0>, <"HSTNng","CHINng",36,14>, <"HSTNng","DNVRng",36,15>, <"HSTNng","IPLSng",36,14>, <"HSTNng","KSCYng",36,0>, <"HSTNng","LOSAng",36,0>, <"HSTNng","NYCMng",36,24>, <"HSTNng","SNVAng",36,28>, <"HSTNng","STTLng",36,32>, <"HSTNng","WASHng",36,21>, <"IPLSng","ATLAM5",36,6>, <"IPLSng","ATLAng",36,0>, <"IPLSng","CHINng",36,0>, <"IPLSng","DNVRng",36,19>, <"IPLSng","HSTNng",36,14>, <"IPLSng","KSCYng",36,0>, <"IPLSng","LOSAng",36,33>, <"IPLSng","NYCMng",36,12>, <"IPLSng","SNVAng",36,36>, <"IPLSng","STTLng",36,37>, <"IPLSng","WASHng",36,9>, <"KSCYng","ATLAM5",36,13>, <"KSCYng","ATLAng",36,12>, <"KSCYng","CHINng",36,9>, <"KSCYng","DNVRng",36,0>, <"KSCYng","HSTNng",36,0>, <"KSCYng","IPLSng",36,0>, <"KSCYng","LOSAng",36,22>, <"KSCYng","NYCMng",36,23>, <"KSCYng","SNVAng",36,25>, <"KSCYng","STTLng",36,27>, <"KSCYng","WASHng",36,20>, <"LOSAng","ATLAM5",36,34>, <"LOSAng","ATLAng",36,33>, <"LOSAng","CHINng",36,32>, <"LOSAng","DNVRng",36,15>, <"LOSAng","HSTNng",36,0>, <"LOSAng","IPLSng",36,33>, <"LOSAng","KSCYng",36,22>, <"LOSAng","NYCMng",36,45>, <"LOSAng","SNVAng",36,0>, <"LOSAng","STTLng",36,14>, <"LOSAng","WASHng",36,42>, <"NYCMng","ATLAM5",36,13>, <"NYCMng","ATLAng",36,13>, <"NYCMng","CHINng",36,0>, <"NYCMng","DNVRng",36,31>, <"NYCMng","HSTNng",36,24>, <"NYCMng","IPLSng",36,12>, <"NYCMng","KSCYng",36,23>, <"NYCMng","LOSAng",36,45>, <"NYCMng","SNVAng",36,48>, <"NYCMng","STTLng",36,49>, <"NYCMng","WASHng",36,0>, <"SNVAng","ATLAM5",36,38>, <"SNVAng","ATLAng",36,37>, <"SNVAng","CHINng",36,35>, <"SNVAng","DNVRng",36,0>, <"SNVAng","HSTNng",36,28>, <"SNVAng","IPLSng",36,36>, <"SNVAng","KSCYng",36,25>, <"SNVAng","LOSAng",36,0>, <"SNVAng","NYCMng",36,48>, <"SNVAng","STTLng",36,0>, <"SNVAng","WASHng",36,45>, <"STTLng","ATLAM5",36,40>, <"STTLng","ATLAng",36,39>, <"STTLng","CHINng",36,35>, <"STTLng","DNVRng",36,0>, <"STTLng","HSTNng",36,32>, <"STTLng","IPLSng",36,37>, <"STTLng","KSCYng",36,27>, <"STTLng","LOSAng",36,14>, <"STTLng","NYCMng",36,49>, <"STTLng","SNVAng",36,0>, <"STTLng","WASHng",36,46>, <"WASHng","ATLAM5",36,9>, <"WASHng","ATLAng",36,0>, <"WASHng","CHINng",36,11>, <"WASHng","DNVRng",36,28>, <"WASHng","HSTNng",36,21>, <"WASHng","IPLSng",36,9>, <"WASHng","KSCYng",36,20>, <"WASHng","LOSAng",36,42>, <"WASHng","NYCMng",36,0>, <"WASHng","SNVAng",36,45>, <"WASHng","STTLng",36,46>};
Demands = {<"ATLAM5","ATLAng",2,0>, <"ATLAM5","CHINng",4,0>, <"ATLAM5","DNVRng",6,0>, <"ATLAM5","HSTNng",8,0>, <"ATLAM5","IPLSng",10,0>, <"ATLAM5","KSCYng",12,0>, <"ATLAM5","LOSAng",14,0>, <"ATLAM5","NYCMng",16,0>, <"ATLAM5","SNVAng",18,0>, <"ATLAM5","STTLng",20,0>, <"ATLAM5","WASHng",22,0>, <"ATLAng","ATLAM5",2,0>, <"ATLAng","CHINng",2,0>, <"ATLAng","DNVRng",4,0>, <"ATLAng","HSTNng",6,0>, <"ATLAng","IPLSng",8,0>, <"ATLAng","KSCYng",10,0>, <"ATLAng","LOSAng",12,0>, <"ATLAng","NYCMng",14,0>, <"ATLAng","SNVAng",16,0>, <"ATLAng","STTLng",18,0>, <"ATLAng","WASHng",20,0>, <"CHINng","ATLAM5",4,0>, <"CHINng","ATLAng",2,0>, <"CHINng","DNVRng",2,0>, <"CHINng","HSTNng",4,0>, <"CHINng","IPLSng",6,0>, <"CHINng","KSCYng",8,0>, <"CHINng","LOSAng",10,0>, <"CHINng","NYCMng",12,0>, <"CHINng","SNVAng",14,0>, <"CHINng","STTLng",16,0>, <"CHINng","WASHng",18,0>, <"DNVRng","ATLAM5",6,0>, <"DNVRng","ATLAng",4,0>, <"DNVRng","CHINng",2,0>, <"DNVRng","HSTNng",2,0>, <"DNVRng","IPLSng",4,0>, <"DNVRng","KSCYng",6,0>, <"DNVRng","LOSAng",8,0>, <"DNVRng","NYCMng",10,0>, <"DNVRng","SNVAng",12,0>, <"DNVRng","STTLng",14,0>, <"DNVRng","WASHng",16,0>, <"HSTNng","ATLAM5",8,0>, <"HSTNng","ATLAng",6,1>, <"HSTNng","CHINng",4,0>, <"HSTNng","DNVRng",2,0>, <"HSTNng","IPLSng",2,0>, <"HSTNng","KSCYng",4,0>, <"HSTNng","LOSAng",6,0>, <"HSTNng","NYCMng",8,0>, <"HSTNng","SNVAng",10,0>, <"HSTNng","STTLng",12,0>, <"HSTNng","WASHng",14,1>, <"IPLSng","ATLAM5",10,0>, <"IPLSng","ATLAng",8,0>, <"IPLSng","CHINng",6,1>, <"IPLSng","DNVRng",4,0>, <"IPLSng","HSTNng",2,0>, <"IPLSng","KSCYng",2,0>, <"IPLSng","LOSAng",4,0>, <"IPLSng","NYCMng",6,0>, <"IPLSng","SNVAng",8,0>, <"IPLSng","STTLng",10,0>, <"IPLSng","WASHng",12,0>, <"KSCYng","ATLAM5",12,0>, <"KSCYng","ATLAng",10,0>, <"KSCYng","CHINng",8,0>, <"KSCYng","DNVRng",6,0>, <"KSCYng","HSTNng",4,0>, <"KSCYng","IPLSng",2,0>, <"KSCYng","LOSAng",2,0>, <"KSCYng","NYCMng",4,0>, <"KSCYng","SNVAng",6,0>, <"KSCYng","STTLng",8,0>, <"KSCYng","WASHng",10,0>, <"LOSAng","ATLAM5",14,0>, <"LOSAng","ATLAng",12,0>, <"LOSAng","CHINng",10,0>, <"LOSAng","DNVRng",8,0>, <"LOSAng","HSTNng",6,0>, <"LOSAng","IPLSng",4,0>, <"LOSAng","KSCYng",2,1>, <"LOSAng","NYCMng",2,0>, <"LOSAng","SNVAng",4,0>, <"LOSAng","STTLng",6,0>, <"LOSAng","WASHng",8,0>, <"NYCMng","ATLAM5",16,0>, <"NYCMng","ATLAng",14,0>, <"NYCMng","CHINng",12,0>, <"NYCMng","DNVRng",10,0>, <"NYCMng","HSTNng",8,0>, <"NYCMng","IPLSng",6,0>, <"NYCMng","KSCYng",4,0>, <"NYCMng","LOSAng",2,0>, <"NYCMng","SNVAng",2,0>, <"NYCMng","STTLng",4,0>, <"NYCMng","WASHng",6,0>, <"SNVAng","ATLAM5",18,0>, <"SNVAng","ATLAng",16,0>, <"SNVAng","CHINng",14,0>, <"SNVAng","DNVRng",12,0>, <"SNVAng","HSTNng",10,0>, <"SNVAng","IPLSng",8,0>, <"SNVAng","KSCYng",6,0>, <"SNVAng","LOSAng",4,0>, <"SNVAng","NYCMng",2,0>, <"SNVAng","STTLng",2,0>, <"SNVAng","WASHng",4,0>, <"STTLng","ATLAM5",20,0>, <"STTLng","ATLAng",18,0>, <"STTLng","CHINng",16,0>, <"STTLng","DNVRng",14,0>, <"STTLng","HSTNng",12,0>, <"STTLng","IPLSng",10,0>, <"STTLng","KSCYng",8,0>, <"STTLng","LOSAng",6,0>, <"STTLng","NYCMng",4,0>, <"STTLng","SNVAng",2,0>, <"STTLng","WASHng",2,0>, <"WASHng","ATLAM5",22,0>, <"WASHng","ATLAng",20,0>, <"WASHng","CHINng",18,0>, <"WASHng","DNVRng",16,0>, <"WASHng","HSTNng",14,0>, <"WASHng","IPLSng",12,0>, <"WASHng","KSCYng",10,0>, <"WASHng","LOSAng",8,0>, <"WASHng","NYCMng",6,0>, <"WASHng","SNVAng",4,0>, <"WASHng","STTLng",2,0>, <"HSTNng","ATLAng",6,1>, <"HSTNng","WASHng",14,1>, <"LOSAng","KSCYng",2,1>, <"IPLSng","CHINng",6,1>};
